c strEdges: 189  randomEdges: 441 
c degrees:  2  3 
c girth: 10 max: 8.032766  
c Hgirth mixed MAXCUT instance
c generated from an undirected graph
c to solve unweighted MaxCut
p cnf 140 1260
48 139 0
-48 -139 0
48 100 0
-48 -100 0
48 129 0
-48 -129 0
35 113 0
-35 -113 0
35 115 0
-35 -115 0
35 56 0
-35 -56 0
75 114 0
-75 -114 0
75 34 0
-75 -34 0
75 113 0
-75 -113 0
26 118 0
-26 -118 0
26 29 0
-26 -29 0
26 59 0
-26 -59 0
32 116 0
-32 -116 0
32 89 0
-32 -89 0
86 19 0
-86 -19 0
86 67 0
-86 -67 0
46 60 0
-46 -60 0
46 96 0
-46 -96 0
46 125 0
-46 -125 0
71 20 0
-71 -20 0
71 51 0
-71 -51 0
36 124 0
-36 -124 0
36 85 0
-36 -85 0
130 96 0
-130 -96 0
130 53 0
-130 -53 0
130 65 0
-130 -65 0
62 123 0
-62 -123 0
62 116 0
-62 -116 0
62 110 0
-62 -110 0
117 89 0
-117 -89 0
117 40 0
-117 -40 0
97 65 0
-97 -65 0
97 104 0
-97 -104 0
97 6 0
-97 -6 0
47 108 0
-47 -108 0
47 127 0
-47 -127 0
47 61 0
-47 -61 0
50 78 0
-50 -78 0
50 118 0
-50 -118 0
50 3 0
-50 -3 0
52 125 0
-52 -125 0
52 82 0
-52 -82 0
52 89 0
-52 -89 0
122 82 0
-122 -82 0
122 134 0
-122 -134 0
132 38 0
-132 -38 0
132 107 0
-132 -107 0
132 59 0
-132 -59 0
91 77 0
-91 -77 0
91 94 0
-91 -94 0
91 78 0
-91 -78 0
57 127 0
-57 -127 0
57 113 0
-57 -113 0
57 135 0
-57 -135 0
80 67 0
-80 -67 0
80 73 0
-80 -73 0
136 6 0
-136 -6 0
136 139 0
-136 -139 0
136 123 0
-136 -123 0
111 100 0
-111 -100 0
111 4 0
-111 -4 0
111 127 0
-111 -127 0
25 102 0
-25 -102 0
25 34 0
-25 -34 0
42 74 0
-42 -74 0
42 124 0
-42 -124 0
42 44 0
-42 -44 0
90 14 0
-90 -14 0
90 129 0
-90 -129 0
90 60 0
-90 -60 0
23 54 0
-23 -54 0
23 70 0
-23 -70 0
23 7 0
-23 -7 0
49 7 0
-49 -7 0
49 108 0
-49 -108 0
133 45 0
-133 -45 0
133 7 0
-133 -7 0
126 41 0
-126 -41 0
126 107 0
-126 -107 0
126 53 0
-126 -53 0
93 40 0
-93 -40 0
93 5 0
-93 -5 0
93 135 0
-93 -135 0
105 104 0
-105 -104 0
105 69 0
-105 -69 0
105 22 0
-105 -22 0
58 2 0
-58 -2 0
58 38 0
-58 -38 0
58 82 0
-58 -82 0
109 15 0
-109 -15 0
109 41 0
-109 -41 0
109 22 0
-109 -22 0
99 51 0
-99 -51 0
99 124 0
-99 -124 0
140 8 0
-140 -8 0
140 19 0
-140 -19 0
140 60 0
-140 -60 0
21 92 0
-21 -92 0
21 29 0
-21 -29 0
21 39 0
-21 -39 0
11 3 0
-11 -3 0
11 66 0
-11 -66 0
11 15 0
-11 -15 0
27 69 0
-27 -69 0
27 19 0
-27 -19 0
27 56 0
-27 -56 0
95 70 0
-95 -70 0
95 16 0
-95 -16 0
95 55 0
-95 -55 0
31 61 0
-31 -61 0
31 39 0
-31 -39 0
31 8 0
-31 -8 0
13 107 0
-13 -107 0
13 61 0
-13 -61 0
13 128 0
-13 -128 0
18 34 0
-18 -34 0
18 33 0
-18 -33 0
83 33 0
-83 -33 0
83 54 0
-83 -54 0
79 59 0
-79 -59 0
79 54 0
-79 -54 0
79 139 0
-79 -139 0
9 84 0
-9 -84 0
9 38 0
-9 -38 0
9 106 0
-9 -106 0
43 94 0
-43 -94 0
43 20 0
-43 -20 0
28 115 0
-28 -115 0
28 3 0
-28 -3 0
28 121 0
-28 -121 0
131 121 0
-131 -121 0
131 134 0
-131 -134 0
24 134 0
-24 -134 0
24 33 0
-24 -33 0
24 67 0
-24 -67 0
64 110 0
-64 -110 0
64 77 0
-64 -77 0
64 114 0
-64 -114 0
137 119 0
-137 -119 0
137 65 0
-137 -65 0
137 78 0
-137 -78 0
81 5 0
-81 -5 0
81 15 0
-81 -15 0
81 74 0
-81 -74 0
103 22 0
-103 -22 0
103 92 0
-103 -92 0
103 4 0
-103 -4 0
88 39 0
-88 -39 0
88 77 0
-88 -77 0
63 106 0
-63 -106 0
63 70 0
-63 -70 0
63 94 0
-63 -94 0
12 66 0
-12 -66 0
12 112 0
-12 -112 0
12 84 0
-12 -84 0
17 4 0
-17 -4 0
17 2 0
-17 -2 0
17 20 0
-17 -20 0
98 85 0
-98 -85 0
98 102 0
-98 -102 0
98 119 0
-98 -119 0
138 73 0
-138 -73 0
138 44 0
-138 -44 0
120 128 0
-120 -128 0
120 55 0
-120 -55 0
120 69 0
-120 -69 0
37 56 0
-37 -56 0
37 106 0
-37 -106 0
30 112 0
-30 -112 0
30 73 0
-30 -73 0
30 108 0
-30 -108 0
72 53 0
-72 -53 0
72 45 0
-72 -45 0
72 51 0
-72 -51 0
87 129 0
-87 -129 0
87 84 0
-87 -84 0
87 102 0
-87 -102 0
10 44 0
-10 -44 0
10 110 0
-10 -110 0
76 16 0
-76 -16 0
76 116 0
-76 -116 0
76 92 0
-76 -92 0
1 29 0
-1 -29 0
1 14 0
-1 -14 0
68 135 0
-68 -135 0
68 14 0
-68 -14 0
101 55 0
-101 -55 0
101 85 0
-101 -85 0
101 121 0
-101 -121 0
126 96 0
-126 -96 0
21 8 0
-21 -8 0
60 74 0
-60 -74 0
65 74 0
-65 -74 0
48 34 0
-48 -34 0
80 70 0
-80 -70 0
46 80 0
-46 -80 0
123 39 0
-123 -39 0
78 54 0
-78 -54 0
62 78 0
-62 -78 0
130 98 0
-130 -98 0
124 22 0
-124 -22 0
113 89 0
-113 -89 0
108 128 0
-108 -128 0
31 29 0
-31 -29 0
65 61 0
-65 -61 0
120 77 0
-120 -77 0
57 49 0
-57 -49 0
111 24 0
-111 -24 0
58 56 0
-58 -56 0
91 33 0
-91 -33 0
130 81 0
-130 -81 0
91 98 0
-91 -98 0
126 92 0
-126 -92 0
12 94 0
-12 -94 0
134 119 0
-134 -119 0
116 106 0
-116 -106 0
98 96 0
-98 -96 0
125 128 0
-125 -128 0
54 134 0
-54 -134 0
130 13 0
-130 -13 0
140 89 0
-140 -89 0
24 96 0
-24 -96 0
88 112 0
-88 -112 0
113 135 0
-113 -135 0
85 53 0
-85 -53 0
49 18 0
-49 -18 0
93 41 0
-93 -41 0
120 40 0
-120 -40 0
81 101 0
-81 -101 0
35 77 0
-35 -77 0
117 7 0
-117 -7 0
64 3 0
-64 -3 0
43 65 0
-43 -65 0
58 6 0
-58 -6 0
117 64 0
-117 -64 0
81 12 0
-81 -12 0
130 25 0
-130 -25 0
35 4 0
-35 -4 0
133 6 0
-133 -6 0
113 51 0
-113 -51 0
116 107 0
-116 -107 0
93 39 0
-93 -39 0
98 120 0
-98 -120 0
121 73 0
-121 -73 0
7 106 0
-7 -106 0
108 56 0
-108 -56 0
71 119 0
-71 -119 0
64 129 0
-64 -129 0
61 110 0
-61 -110 0
76 6 0
-76 -6 0
36 49 0
-36 -49 0
97 2 0
-97 -2 0
52 84 0
-52 -84 0
86 132 0
-86 -132 0
111 135 0
-111 -135 0
48 137 0
-48 -137 0
111 34 0
-111 -34 0
24 70 0
-24 -70 0
103 33 0
-103 -33 0
71 50 0
-71 -50 0
113 15 0
-113 -15 0
43 10 0
-43 -10 0
132 111 0
-132 -111 0
126 27 0
-126 -27 0
60 3 0
-60 -3 0
101 67 0
-101 -67 0
43 68 0
-43 -68 0
78 106 0
-78 -106 0
127 6 0
-127 -6 0
19 7 0
-19 -7 0
64 67 0
-64 -67 0
72 128 0
-72 -128 0
64 125 0
-64 -125 0
62 85 0
-62 -85 0
26 140 0
-26 -140 0
126 82 0
-126 -82 0
132 95 0
-132 -95 0
28 129 0
-28 -129 0
138 102 0
-138 -102 0
114 60 0
-114 -60 0
37 55 0
-37 -55 0
32 8 0
-32 -8 0
122 39 0
-122 -39 0
105 6 0
-105 -6 0
69 94 0
-69 -94 0
126 134 0
-126 -134 0
75 1 0
-75 -1 0
48 7 0
-48 -7 0
95 100 0
-95 -100 0
10 73 0
-10 -73 0
71 64 0
-71 -64 0
98 129 0
-98 -129 0
11 4 0
-11 -4 0
57 10 0
-57 -10 0
122 94 0
-122 -94 0
23 94 0
-23 -94 0
91 112 0
-91 -112 0
86 108 0
-86 -108 0
95 119 0
-95 -119 0
50 1 0
-50 -1 0
9 24 0
-9 -24 0
130 117 0
-130 -117 0
71 114 0
-71 -114 0
48 21 0
-48 -21 0
118 55 0
-118 -55 0
72 134 0
-72 -134 0
61 56 0
-61 -56 0
133 58 0
-133 -58 0
49 30 0
-49 -30 0
113 54 0
-113 -54 0
35 90 0
-35 -90 0
27 85 0
-27 -85 0
28 44 0
-28 -44 0
111 19 0
-111 -19 0
49 66 0
-49 -66 0
126 79 0
-126 -79 0
130 62 0
-130 -62 0
78 61 0
-78 -61 0
133 44 0
-133 -44 0
81 10 0
-81 -10 0
49 11 0
-49 -11 0
64 137 0
-64 -137 0
23 77 0
-23 -77 0
38 92 0
-38 -92 0
104 119 0
-104 -119 0
132 78 0
-132 -78 0
35 18 0
-35 -18 0
50 106 0
-50 -106 0
90 105 0
-90 -105 0
123 94 0
-123 -94 0
115 121 0
-115 -121 0
91 23 0
-91 -23 0
63 134 0
-63 -134 0
47 116 0
-47 -116 0
23 105 0
-23 -105 0
130 28 0
-130 -28 0
27 92 0
-27 -92 0
136 29 0
-136 -29 0
36 62 0
-36 -62 0
59 53 0
-59 -53 0
138 121 0
-138 -121 0
23 19 0
-23 -19 0
84 39 0
-84 -39 0
67 29 0
-67 -29 0
109 73 0
-109 -73 0
76 56 0
-76 -56 0
50 12 0
-50 -12 0
79 55 0
-79 -55 0
140 43 0
-140 -43 0
40 107 0
-40 -107 0
70 29 0
-70 -29 0
62 140 0
-62 -140 0
42 92 0
-42 -92 0
90 63 0
-90 -63 0
20 124 0
-20 -124 0
47 76 0
-47 -76 0
109 128 0
-109 -128 0
64 37 0
-64 -37 0
108 115 0
-108 -115 0
32 44 0
-32 -44 0
90 108 0
-90 -108 0
25 134 0
-25 -134 0
80 93 0
-80 -93 0
87 53 0
-87 -53 0
127 115 0
-127 -115 0
6 3 0
-6 -3 0
24 88 0
-24 -88 0
74 92 0
-74 -92 0
11 101 0
-11 -101 0
51 84 0
-51 -84 0
109 4 0
-109 -4 0
71 70 0
-71 -70 0
1 65 0
-1 -65 0
52 73 0
-52 -73 0
38 7 0
-38 -7 0
91 92 0
-91 -92 0
92 106 0
-92 -106 0
31 9 0
-31 -9 0
36 54 0
-36 -54 0
80 13 0
-80 -13 0
24 118 0
-24 -118 0
48 61 0
-48 -61 0
140 63 0
-140 -63 0
115 22 0
-115 -22 0
15 94 0
-15 -94 0
108 54 0
-108 -54 0
28 73 0
-28 -73 0
82 39 0
-82 -39 0
132 49 0
-132 -49 0
118 20 0
-118 -20 0
23 41 0
-23 -41 0
105 16 0
-105 -16 0
96 73 0
-96 -73 0
105 10 0
-105 -10 0
52 4 0
-52 -4 0
43 118 0
-43 -118 0
90 54 0
-90 -54 0
21 124 0
-21 -124 0
29 135 0
-29 -135 0
50 22 0
-50 -22 0
9 87 0
-9 -87 0
132 81 0
-132 -81 0
42 21 0
-42 -21 0
35 126 0
-35 -126 0
26 50 0
-26 -50 0
120 70 0
-120 -70 0
46 124 0
-46 -124 0
50 20 0
-50 -20 0
9 102 0
-9 -102 0
90 119 0
-90 -119 0
75 130 0
-75 -130 0
21 45 0
-21 -45 0
86 47 0
-86 -47 0
27 34 0
-27 -34 0
35 93 0
-35 -93 0
27 113 0
-27 -113 0
99 87 0
-99 -87 0
26 78 0
-26 -78 0
131 138 0
-131 -138 0
62 24 0
-62 -24 0
32 95 0
-32 -95 0
83 3 0
-83 -3 0
117 103 0
-117 -103 0
109 108 0
-109 -108 0
26 36 0
-26 -36 0
122 59 0
-122 -59 0
116 61 0
-116 -61 0
87 134 0
-87 -134 0
68 112 0
-68 -112 0
9 60 0
-9 -60 0
63 53 0
-63 -53 0
136 37 0
-136 -37 0
36 43 0
-36 -43 0
116 102 0
-116 -102 0
37 30 0
-37 -30 0
117 94 0
-117 -94 0
50 6 0
-50 -6 0
95 34 0
-95 -34 0
108 14 0
-108 -14 0
49 107 0
-49 -107 0
81 70 0
-81 -70 0
21 60 0
-21 -60 0
83 74 0
-83 -74 0
132 76 0
-132 -76 0
125 135 0
-125 -135 0
121 135 0
-121 -135 0
97 29 0
-97 -29 0
11 12 0
-11 -12 0
86 95 0
-86 -95 0
81 22 0
-81 -22 0
101 33 0
-101 -33 0
3 5 0
-3 -5 0
99 88 0
-99 -88 0
82 54 0
-82 -54 0
68 51 0
-68 -51 0
111 63 0
-111 -63 0
27 3 0
-27 -3 0
11 118 0
-11 -118 0
9 128 0
-9 -128 0
23 126 0
-23 -126 0
75 26 0
-75 -26 0
96 106 0
-96 -106 0
35 58 0
-35 -58 0
12 29 0
-12 -29 0
117 118 0
-117 -118 0
22 73 0
-22 -73 0
72 77 0
-72 -77 0
32 83 0
-32 -83 0
21 6 0
-21 -6 0
99 20 0
-99 -20 0
134 22 0
-134 -22 0
42 113 0
-42 -113 0
123 29 0
-123 -29 0
138 76 0
-138 -76 0
124 115 0
-124 -115 0
50 55 0
-50 -55 0
124 53 0
-124 -53 0
80 123 0
-80 -123 0
47 29 0
-47 -29 0
101 116 0
-101 -116 0
60 56 0
-60 -56 0
87 70 0
-87 -70 0
118 51 0
-118 -51 0
101 135 0
-101 -135 0
118 135 0
-118 -135 0
86 55 0
-86 -55 0
6 2 0
-6 -2 0
90 56 0
-90 -56 0
47 113 0
-47 -113 0
37 135 0
-37 -135 0
130 89 0
-130 -89 0
140 21 0
-140 -21 0
32 135 0
-32 -135 0
133 39 0
-133 -39 0
15 34 0
-15 -34 0
28 15 0
-28 -15 0
13 131 0
-13 -131 0
47 96 0
-47 -96 0
40 56 0
-40 -56 0
132 83 0
-132 -83 0
133 114 0
-133 -114 0
10 92 0
-10 -92 0
36 82 0
-36 -82 0
72 73 0
-72 -73 0
71 11 0
-71 -11 0
36 3 0
-36 -3 0
95 72 0
-95 -72 0
48 103 0
-48 -103 0
49 81 0
-49 -81 0
122 1 0
-122 -1 0
17 68 0
-17 -68 0
54 61 0
-54 -61 0
107 112 0
-107 -112 0
122 57 0
-122 -57 0
43 66 0
-43 -66 0
83 76 0
-83 -76 0
30 110 0
-30 -110 0
28 33 0
-28 -33 0
47 28 0
-47 -28 0
68 106 0
-68 -106 0
50 120 0
-50 -120 0
117 3 0
-117 -3 0
6 69 0
-6 -69 0
43 128 0
-43 -128 0
88 41 0
-88 -41 0
11 70 0
-11 -70 0
9 98 0
-9 -98 0
92 73 0
-92 -73 0
139 74 0
-139 -74 0
33 55 0
-33 -55 0
24 19 0
-24 -19 0
64 103 0
-64 -103 0
136 125 0
-136 -125 0
62 109 0
-62 -109 0
9 78 0
-9 -78 0
50 103 0
-50 -103 0
82 33 0
-82 -33 0
57 22 0
-57 -22 0
86 100 0
-86 -100 0
43 17 0
-43 -17 0
35 72 0
-35 -72 0
64 12 0
-64 -12 0
136 103 0
-136 -103 0
59 29 0
-59 -29 0
97 139 0
-97 -139 0
52 34 0
-52 -34 0
127 92 0
-127 -92 0
131 1 0
-131 -1 0
48 54 0
-48 -54 0
117 65 0
-117 -65 0
76 118 0
-76 -118 0
114 7 0
-114 -7 0
124 123 0
-124 -123 0
98 60 0
-98 -60 0
58 124 0
-58 -124 0
65 2 0
-65 -2 0
86 12 0
-86 -12 0
47 27 0
-47 -27 0
12 56 0
-12 -56 0
133 22 0
-133 -22 0
74 61 0
-74 -61 0
90 104 0
-90 -104 0
133 3 0
-133 -3 0
8 73 0
-8 -73 0
78 39 0
-78 -39 0
51 129 0
-51 -129 0
102 112 0
-102 -112 0
47 70 0
-47 -70 0
46 36 0
-46 -36 0
9 33 0
-9 -33 0
21 85 0
-21 -85 0
35 43 0
-35 -43 0
20 61 0
-20 -61 0
31 64 0
-31 -64 0
71 123 0
-71 -123 0
105 125 0
-105 -125 0
64 14 0
-64 -14 0
71 37 0
-71 -37 0
14 69 0
-14 -69 0
78 29 0
-78 -29 0
97 123 0
-97 -123 0
116 44 0
-116 -44 0
64 73 0
-64 -73 0
10 129 0
-10 -129 0
70 135 0
-70 -135 0
132 18 0
-132 -18 0
93 98 0
-93 -98 0
11 78 0
-11 -78 0
127 107 0
-127 -107 0
114 3 0
-114 -3 0
42 11 0
-42 -11 0
48 19 0
-48 -19 0
8 128 0
-8 -128 0
18 96 0
-18 -96 0
109 8 0
-109 -8 0
17 123 0
-17 -123 0
113 33 0
-113 -33 0
75 14 0
-75 -14 0
140 115 0
-140 -115 0
127 110 0
-127 -110 0
132 93 0
-132 -93 0
47 126 0
-47 -126 0
9 112 0
-9 -112 0
34 94 0
-34 -94 0
87 106 0
-87 -106 0
48 58 0
-48 -58 0
11 6 0
-11 -6 0
126 81 0
-126 -81 0
7 66 0
-7 -66 0
31 89 0
-31 -89 0
70 106 0
-70 -106 0
86 39 0
-86 -39 0
57 9 0
-57 -9 0
79 135 0
-79 -135 0
110 44 0
-110 -44 0
99 107 0
-99 -107 0
114 55 0
-114 -55 0
26 84 0
-26 -84 0
126 137 0
-126 -137 0
50 105 0
-50 -105 0
30 39 0
-30 -39 0
56 44 0
-56 -44 0
117 1 0
-117 -1 0
108 59 0
-108 -59 0
20 102 0
-20 -102 0
49 126 0
-49 -126 0
103 116 0
-103 -116 0
46 70 0
-46 -70 0
69 128 0
-69 -128 0
133 139 0
-133 -139 0
